data/instances/vrp_files/train_48.vrp
NAME : 48
COMMENT : Generated instance No. 48
TYPE : CVRP
DIMENSION : 21
EDGE_WEIGHT_TYPE : EUC_2D
CAPACITY : 30
NODE_COORD_SECTION
 1 9 357
 2 445 209
 3 49 843
 4 981 793
 5 853 241
 6 960 196
 7 951 994
 8 711 981
 9 569 259
 10 436 593
 11 73 622
 12 981 190
 13 792 907
 14 943 960
 15 521 977
 16 757 161
 17 476 718
 18 247 640
 19 666 162
 20 565 771
 21 498 12
DEMAND_SECTION
1 0
2 10
3 5
4 8
5 10
6 8
7 2
8 7
9 8
10 6
11 5
12 9
13 3
14 10
15 4
16 9
17 6
18 8
19 7
20 2
21 3
DEPOT_SECTION
 1
 -1
EOF